/* Objective function */
max: +420 * X1+ 420 *X2+420 *X3  + 360 * Y1+360 *Y2+360 *Y3 + 300 * Z1+300 * Z2+300 * Z3;

/* Constraint */
X1+Y1+Z1 <=750;
X2+Y2+Z2 <=900;
X3+Y3+Z3 <=450; 
20 * X1+15 * Y1+12 * Z1<=13000;
20*X2+15 * Y2+12 * Z2<=12000;
20*X3+15*Y3+12*Z3<=5000;
X1+X2+X3 <=900;
Y1+Y2+Y3 <= 1200;
Z1+Z2+Z3 <=7500;    

